(declare-const _a_0_ Real)
(declare-const _a_1_ Real)
(declare-const _a_2_ Real)
(assert (forall ((y_0 Real) (x_0 Real) (n_0 Real) (t_0 Real) ) (=> (and (>= (+ (* 1 n_0) (* 0 1) ) 0)) (and (>= (+ (* 0 1) (* 0 n_0) ) 0)))))
(assert (forall ((y_0 Real) (x_0 Real) (n_0 Real) (t_0 Real) ) (=> (and (>= (+ (* 1 n_0) (* 0 1) ) 0)) (and (>= (+ (* 0 n_0) (* 0 1) ) 0)))))
(assert (forall ((y_0 Real) (x_0 Real) (n_0 Real) (t_0 Real) ) (=> (and (>= (+ (* 0 1) (* -1 (*  x_0   x_0   x_0  )) (* -3. t_0) (* -1 y_0) (* 1 n_0) ) 0)(>= (+ (* 1 (*  x_0   x_0   x_0  )) (* 3. t_0) (* 1 y_0) (* -1 n_0) (* 0 1) ) 0)(>= (* -1 y_0)  0)) (and (>= (* 1. 1)  0)))))
(assert (forall ((y_0 Real) (x_0 Real) (n_0 Real) (t_0 Real) ) (=> (and (>= (+ (* 0 1) (* -1 (*  x_0   x_0   x_0  )) (* -3. t_0) (* -1 y_0) (* 1 n_0) ) 0)(>= (+ (* 1 (*  x_0   x_0   x_0  )) (* 3. t_0) (* 1 y_0) (* -1 n_0) (* 0 1) ) 0)(>= (+ (* 1 y_0) (* 0 1) ) 0)(>= (+ (* 1 (*  x_0   x_0  )) (* -1 t_0) ) 0)(>= (+ (* 1 t_0) (* -1 (*  x_0   x_0  )) ) 0)) (and (>= (+ (* (+ -1. (* -1 _a_0_)) 1) (* -1 (*  x_0   x_0   x_0  )) (* -3. (*  x_0   x_0  )) (* (+ -3. (* -1 _a_2_)) x_0) (* (* -1 _a_1_) y_0) (* 1 n_0) ) 0)))))
(assert (forall ((y_0 Real) (x_0 Real) (n_0 Real) (t_0 Real) ) (=> (and (>= (+ (* 0 1) (* -1 (*  x_0   x_0   x_0  )) (* -3. t_0) (* -1 y_0) (* 1 n_0) ) 0)(>= (+ (* 1 (*  x_0   x_0   x_0  )) (* 3. t_0) (* 1 y_0) (* -1 n_0) (* 0 1) ) 0)(>= (+ (* 1 y_0) (* 0 1) ) 0)(>= (+ (* 1 (*  x_0   x_0  )) (* -1 t_0) ) 0)(>= (+ (* 1 t_0) (* -1 (*  x_0   x_0  )) ) 0)) (and (>= (+ (* 1 (*  x_0   x_0   x_0  )) (* 3. (*  x_0   x_0  )) (* (+ 3. _a_2_) x_0) (* (+ 1. _a_0_) 1) (* _a_1_ y_0) (* -1 n_0) ) 0)))))
(assert (forall ((y_0 Real) (x_0 Real) (n_0 Real) (t_0 Real) ) (=> (and (>= (+ (* 0 1) (* -1 (*  x_0   x_0   x_0  )) (* -3. t_0) (* -1 y_0) (* 1 n_0) ) 0)(>= (+ (* 1 (*  x_0   x_0   x_0  )) (* 3. t_0) (* 1 y_0) (* -1 n_0) (* 0 1) ) 0)(>= (+ (* 1 y_0) (* 0 1) ) 0)(>= (+ (* -1 (*  x_0   x_0  )) (* 1 t_0) ) 0)(>= (+ (* -1 t_0) (* 1 (*  x_0   x_0  )) ) 0)) (and (>= (+ (* 0 1) (* -1 (*  x_0   x_0   x_0  )) (* -3. t_0) (* -1 y_0) (* 1 n_0) ) 0)))))
(assert (forall ((y_0 Real) (x_0 Real) (n_0 Real) (t_0 Real) ) (=> (and (>= (+ (* 0 1) (* -1 (*  x_0   x_0   x_0  )) (* -3. t_0) (* -1 y_0) (* 1 n_0) ) 0)(>= (+ (* 1 (*  x_0   x_0   x_0  )) (* 3. t_0) (* 1 y_0) (* -1 n_0) (* 0 1) ) 0)(>= (+ (* 1 y_0) (* 0 1) ) 0)(>= (+ (* -1 (*  x_0   x_0  )) (* 1 t_0) ) 0)(>= (+ (* -1 t_0) (* 1 (*  x_0   x_0  )) ) 0)) (and (>= (+ (* 1 (*  x_0   x_0   x_0  )) (* 3. t_0) (* 0 1) (* 1 y_0) (* -1 n_0) ) 0)))))
(check-sat)
(get-model)

